c SAT Generator for power-law distributed variable frequencies
c -g u -v 20 -c 91 -k 3 -p 2.750000 -b 3.200000 -f /home/schmidt/Devel/ni-kop-sat/data/ensemble/ruf20-91/ruf20-91-138 -u 1 -U 1 -s 3359487610
p cnf 20 91
3 -6 9 0
-2 -12 14 0
-1 -3 16 0
3 -7 11 0
5 -11 13 0
-3 -9 -19 0
-2 -10 13 0
2 -16 -17 0
3 -15 18 0
-3 5 14 0
-2 -8 -15 0
-4 -19 20 0
9 11 12 0
-4 -13 18 0
-1 -4 -14 0
5 -16 17 0
1 -17 -18 0
12 -14 17 0
-5 7 -15 0
4 -5 -9 0
16 17 -19 0
-13 18 20 0
-9 10 14 0
-3 10 20 0
-5 -7 -8 0
-7 11 -14 0
1 -6 -10 0
9 11 14 0
-8 16 -18 0
-7 -9 16 0
6 -9 -17 0
12 -15 -18 0
-5 17 19 0
-8 -10 15 0
-7 -18 -19 0
-8 -9 14 0
4 11 -12 0
8 -14 -15 0
5 9 -18 0
-4 9 15 0
7 -8 20 0
11 12 16 0
-3 -9 19 0
7 10 -16 0
-5 -8 15 0
-7 9 14 0
3 5 9 0
5 -14 20 0
-8 -11 20 0
-5 -8 -19 0
3 5 10 0
6 -16 -17 0
3 5 -6 0
-2 -6 -13 0
2 7 -10 0
2 -8 -13 0
-1 -4 8 0
-3 8 17 0
5 6 -11 0
6 13 19 0
-6 11 16 0
14 -18 -20 0
3 -11 13 0
-3 9 12 0
9 -10 -15 0
-8 -17 -19 0
-13 15 20 0
3 -9 -12 0
-6 -7 -17 0
7 11 19 0
8 11 -19 0
-2 -3 -11 0
-2 10 18 0
-2 -8 -11 0
4 10 15 0
-6 -7 -18 0
6 12 -19 0
-8 -10 -17 0
4 -6 -14 0
-7 -14 -16 0
1 -13 -15 0
12 14 16 0
-15 16 -18 0
6 9 -12 0
-6 -13 -15 0
-11 -15 -20 0
-9 10 20 0
6 -8 -16 0
1 -3 14 0
7 -9 18 0
-17 19 20 0
